% File represents an instance of a Composite Structure problem to be solved by a CP framework
% Created on 2025-03-26 10:42:10.809
T = 50;
n = 36;
m = 60;
edges = [(1, 2),
(7, 8),
(13, 14),
(19, 20),
(25, 26),
(31, 32),
(2, 3),
(8, 9),
(14, 15),
(20, 21),
(26, 27),
(33, 32),
(3, 4),
(9, 10),
(15, 16),
(21, 22),
(27, 28),
(34, 33),
(4, 5),
(10, 11),
(16, 17),
(22, 23),
(28, 29),
(34, 35),
(6, 5),
(12, 11),
(17, 18),
(23, 24),
(29, 30),
(35, 36),
(7, 1),
(7, 13),
(13, 19),
(19, 25),
(25, 31),
(8, 2),
(8, 14),
(14, 20),
(20, 26),
(26, 32),
(9, 3),
(9, 15),
(15, 21),
(21, 27),
(27, 33),
(10, 4),
(10, 16),
(16, 22),
(22, 28),
(34, 28),
(11, 5),
(17, 11),
(17, 23),
(23, 29),
(35, 29),
(12, 6),
(12, 18),
(18, 24),
(24, 30),
(36, 30)];
counts = [|6, 14, 6, 18,
|6, 10, 6, 16,
|4, 10, 4, 16,
|4, 8, 4, 12,
|2, 8, 2, 10,
|2, 10, 2, 14,
|6, 14, 6, 24,
|6, 12, 6, 20,
|6, 10, 6, 18,
|4, 10, 4, 16,
|4, 8, 4, 12,
|4, 10, 4, 16,
|6, 12, 6, 20,
|6, 10, 6, 16,
|6, 10, 6, 14,
|4, 10, 4, 14,
|4, 8, 4, 14,
|4, 8, 4, 12,
|6, 10, 6, 16,
|4, 10, 4, 16,
|4, 8, 4, 14,
|4, 8, 4, 12,
|4, 8, 4, 8,
|4, 6, 4, 8,
|6, 8, 6, 14,
|4, 8, 4, 12,
|4, 6, 4, 12,
|4, 6, 4, 8,
|4, 2, 4, 8,
|4, 2, 4, 6,
|6, 4, 6, 12,
|4, 4, 4, 10,
|4, 4, 4, 12,
|4, 6, 4, 14,
|4, 6, 4, 8,
|4, 2, 4, 8|];
